certificates/rado_a14_c122_N41.cnf
c Rad2 upper bound instance: x1 + 14*x2 - x3 = 122, interval [1,41]
p cnf 41 240
1 5 9 0
-1 -5 -9 0
1 10 19 0
-1 -10 -19 0
1 11 33 0
-1 -11 -33 0
2 6 9 0
-2 -6 -9 0
2 10 20 0
-2 -10 -20 0
2 11 34 0
-2 -11 -34 0
3 7 9 0
-3 -7 -9 0
3 10 21 0
-3 -10 -21 0
3 11 35 0
-3 -11 -35 0
4 8 9 0
-4 -8 -9 0
4 10 22 0
-4 -10 -22 0
4 11 36 0
-4 -11 -36 0
5 9 0
-5 -9 0
5 10 23 0
-5 -10 -23 0
5 11 37 0
-5 -11 -37 0
6 9 10 0
-6 -9 -10 0
6 10 24 0
-6 -10 -24 0
6 11 38 0
-6 -11 -38 0
7 9 11 0
-7 -9 -11 0
7 10 25 0
-7 -10 -25 0
7 11 39 0
-7 -11 -39 0
8 9 12 0
-8 -9 -12 0
8 10 26 0
-8 -10 -26 0
8 11 40 0
-8 -11 -40 0
9 13 0
-9 -13 0
9 10 27 0
-9 -10 -27 0
9 11 41 0
-9 -11 -41 0
9 10 14 0
-9 -10 -14 0
10 28 0
-10 -28 0
1 8 11 0
-1 -8 -11 0
9 11 15 0
-9 -11 -15 0
10 11 29 0
-10 -11 -29 0
2 8 12 0
-2 -8 -12 0
9 12 16 0
-9 -12 -16 0
10 12 30 0
-10 -12 -30 0
3 8 13 0
-3 -8 -13 0
9 13 17 0
-9 -13 -17 0
10 13 31 0
-10 -13 -31 0
4 8 14 0
-4 -8 -14 0
9 14 18 0
-9 -14 -18 0
10 14 32 0
-10 -14 -32 0
5 8 15 0
-5 -8 -15 0
9 15 19 0
-9 -15 -19 0
10 15 33 0
-10 -15 -33 0
6 8 16 0
-6 -8 -16 0
9 16 20 0
-9 -16 -20 0
10 16 34 0
-10 -16 -34 0
7 8 17 0
-7 -8 -17 0
9 17 21 0
-9 -17 -21 0
10 17 35 0
-10 -17 -35 0
8 18 0
-8 -18 0
9 18 22 0
-9 -18 -22 0
10 18 36 0
-10 -18 -36 0
8 9 19 0
-8 -9 -19 0
9 19 23 0
-9 -19 -23 0
10 19 37 0
-10 -19 -37 0
8 10 20 0
-8 -10 -20 0
9 20 24 0
-9 -20 -24 0
10 20 38 0
-10 -20 -38 0
8 11 21 0
-8 -11 -21 0
9 21 25 0
-9 -21 -25 0
10 21 39 0
-10 -21 -39 0
8 12 22 0
-8 -12 -22 0
9 22 26 0
-9 -22 -26 0
10 22 40 0
-10 -22 -40 0
8 13 23 0
-8 -13 -23 0
9 23 27 0
-9 -23 -27 0
10 23 41 0
-10 -23 -41 0
8 14 24 0
-8 -14 -24 0
9 24 28 0
-9 -24 -28 0
1 7 25 0
-1 -7 -25 0
8 15 25 0
-8 -15 -25 0
9 25 29 0
-9 -25 -29 0
2 7 26 0
-2 -7 -26 0
8 16 26 0
-8 -16 -26 0
9 26 30 0
-9 -26 -30 0
3 7 27 0
-3 -7 -27 0
8 17 27 0
-8 -17 -27 0
9 27 31 0
-9 -27 -31 0
4 7 28 0
-4 -7 -28 0
8 18 28 0
-8 -18 -28 0
9 28 32 0
-9 -28 -32 0
5 7 29 0
-5 -7 -29 0
8 19 29 0
-8 -19 -29 0
9 29 33 0
-9 -29 -33 0
6 7 30 0
-6 -7 -30 0
8 20 30 0
-8 -20 -30 0
9 30 34 0
-9 -30 -34 0
7 31 0
-7 -31 0
8 21 31 0
-8 -21 -31 0
9 31 35 0
-9 -31 -35 0
7 8 32 0
-7 -8 -32 0
8 22 32 0
-8 -22 -32 0
9 32 36 0
-9 -32 -36 0
7 9 33 0
-7 -9 -33 0
8 23 33 0
-8 -23 -33 0
9 33 37 0
-9 -33 -37 0
7 10 34 0
-7 -10 -34 0
8 24 34 0
-8 -24 -34 0
9 34 38 0
-9 -34 -38 0
7 11 35 0
-7 -11 -35 0
8 25 35 0
-8 -25 -35 0
9 35 39 0
-9 -35 -39 0
7 12 36 0
-7 -12 -36 0
8 26 36 0
-8 -26 -36 0
9 36 40 0
-9 -36 -40 0
7 13 37 0
-7 -13 -37 0
8 27 37 0
-8 -27 -37 0
9 37 41 0
-9 -37 -41 0
7 14 38 0
-7 -14 -38 0
8 28 38 0
-8 -28 -38 0
1 6 39 0
-1 -6 -39 0
7 15 39 0
-7 -15 -39 0
8 29 39 0
-8 -29 -39 0
2 6 40 0
-2 -6 -40 0
7 16 40 0
-7 -16 -40 0
8 30 40 0
-8 -30 -40 0
3 6 41 0
-3 -6 -41 0
7 17 41 0
-7 -17 -41 0
8 31 41 0
-8 -31 -41 0
