certificates/rado_a14_c122_N41.drat
-37 -41 0
d -37 -9 -41 0
11 9 -39 0
-13 -38 -39 0
-9 -41 0
-39 -41 0
-11 -41 0
-41 0
-7 -9 0
11 0
-9 0
5 0
13 0
37 0
0
